sat
(:added-eqs                   10115
 :arith-bound-propagations-lp 10365
 :arith-conflicts             445
 :arith-fixed-eqs             2518
 :arith-lower                 48366
 :arith-make-feasible         15337
 :arith-max-columns           870
 :arith-max-rows              441
 :arith-offset-eqs            7742
 :arith-upper                 38205
 :binary-propagations         60209
 :conflicts                   688
 :decisions                   12708
 :del-clause                  277
 :final-checks                1
 :max-memory                  31.51
 :memory                      20.52
 :minimized-lits              2938
 :mk-bool-var                 3799
 :mk-clause                   4320
 :mk-clause-binary            5305
 :num-allocs                  62407377
 :num-checks                  1
 :propagations                96572
 :restarts                    3
 :rlimit-count                1427529
 :solve-eqs-elim-vars         355
 :solve-eqs-steps             2203
 :time                        0.76
 :total-time                  0.79)
